; benchmark generated from python API
(set-info :status unknown)
(declare-fun syscall_stub_newfstatat_83_64 () (_ BitVec 64))
(declare-fun mem_c0000f45_79_992 () (_ BitVec 992))
(declare-fun mem_c0001010_98_32 () (_ BitVec 32))
(declare-fun mem_7fffffffffffffff_104_8 () (_ BitVec 8))
(declare-fun mem_8000000000000000_195_128 () (_ BitVec 128))
(assert
 (let ((?x47 ((_ extract 31 0) syscall_stub_newfstatat_83_64)))
 (let (($x52 (bvule ?x47 (_ bv4294963200 32))))
 (not $x52))))
(assert
 (let ((?x3699 ((_ extract 891 891) mem_c0000f45_79_992)))
 (= (_ bv0 1) ?x3699)))
(assert
 (let ((?x2189 ((_ extract 900 900) mem_c0000f45_79_992)))
 (= (_ bv0 1) ?x2189)))
(assert
 (let ((?x2374 ((_ extract 839 832) mem_c0000f45_79_992)))
 (= (_ bv255 8) ?x2374)))
(assert
 (let ((?x2364 ((_ extract 831 824) mem_c0000f45_79_992)))
 (= (_ bv255 8) ?x2364)))
(assert
 (let ((?x2349 ((_ extract 823 816) mem_c0000f45_79_992)))
 (= (_ bv255 8) ?x2349)))
(assert
 (let ((?x2357 ((_ extract 815 808) mem_c0000f45_79_992)))
 (= (_ bv255 8) ?x2357)))
(assert
 (let ((?x2362 ((_ extract 807 800) mem_c0000f45_79_992)))
 (= (_ bv255 8) ?x2362)))
(assert
 (let ((?x2363 ((_ extract 799 792) mem_c0000f45_79_992)))
 (= (_ bv255 8) ?x2363)))
(assert
 (let ((?x2346 ((_ extract 791 784) mem_c0000f45_79_992)))
 (= (_ bv255 8) ?x2346)))
(assert
 (let ((?x2345 ((_ extract 783 776) mem_c0000f45_79_992)))
 (= (_ bv127 8) ?x2345)))
(assert
 (let ((?x2427 ((_ extract 775 768) mem_c0000f45_79_992)))
 (let ((?x2419 ((_ extract 767 760) mem_c0000f45_79_992)))
 (let ((?x2429 ((_ extract 759 752) mem_c0000f45_79_992)))
 (let ((?x2417 ((_ extract 751 744) mem_c0000f45_79_992)))
 (let ((?x2410 ((_ extract 743 736) mem_c0000f45_79_992)))
 (let ((?x2411 ((_ extract 735 728) mem_c0000f45_79_992)))
 (let ((?x4124 (concat (concat ((_ extract 719 712) mem_c0000f45_79_992) ((_ extract 727 720) mem_c0000f45_79_992)) ?x2411)))
 (let ((?x3823 (concat (concat (concat (concat (concat ?x4124 ?x2410) ?x2417) ?x2429) ?x2419) ?x2427)))
 (let ((?x15099 (bvadd (_ bv9223372036854775808 64) ?x3823)))
 (let ((?x15111 ((_ extract 63 63) ?x15099)))
 (let (($x15093 (= (_ bv1 1) ?x15111)))
 (not $x15093)))))))))))))
(assert
 (let ((?x2401 ((_ extract 727 720) mem_c0000f45_79_992)))
 (let (($x17731 (= (_ bv255 8) ?x2401)))
 (let (($x17664 (not $x17731)))
 (let ((?x2411 ((_ extract 735 728) mem_c0000f45_79_992)))
 (let (($x17604 (= (_ bv255 8) ?x2411)))
 (let (($x17721 (not $x17604)))
 (let ((?x2417 ((_ extract 751 744) mem_c0000f45_79_992)))
 (let (($x17650 (= (_ bv255 8) ?x2417)))
 (let (($x17555 (not $x17650)))
 (let ((?x2410 ((_ extract 743 736) mem_c0000f45_79_992)))
 (let (($x17595 (= (_ bv255 8) ?x2410)))
 (let (($x17616 (not $x17595)))
 (let ((?x2419 ((_ extract 767 760) mem_c0000f45_79_992)))
 (let (($x17574 (= (_ bv255 8) ?x2419)))
 (let (($x17598 (not $x17574)))
 (let ((?x2429 ((_ extract 759 752) mem_c0000f45_79_992)))
 (let (($x17591 (= (_ bv255 8) ?x2429)))
 (let (($x17582 (not $x17591)))
 (let ((?x2400 ((_ extract 719 712) mem_c0000f45_79_992)))
 (let (($x58603 (= (_ bv127 8) ?x2400)))
 (let (($x56089 (not $x58603)))
 (let ((?x2427 ((_ extract 775 768) mem_c0000f45_79_992)))
 (let (($x52309 (= (_ bv255 8) ?x2427)))
 (let (($x57065 (not $x52309)))
 (let (($x57808 (or $x57065 $x56089 $x17582 $x17598 $x17616 $x17555 $x17721 $x17664)))
 (let (($x58601 (not $x57808)))
 (let ((?x3809 (concat (concat (concat (concat (concat ?x2400 ?x2401) ?x2411) ?x2410) ?x2417) ?x2429)))
 (let ((?x3823 (concat (concat ?x3809 ?x2419) ?x2427)))
 (let ((?x58194 (bvadd (_ bv9223372036854775809 64) ?x3823)))
 (let ((?x58113 ((_ extract 63 63) ?x58194)))
 (let (($x58125 (= (_ bv1 1) ?x58113)))
 (or $x58125 $x58601)))))))))))))))))))))))))))))))))
(assert
 (= (_ bv4294967295 32) mem_c0001010_98_32))
(assert
 (let (($x15106 (= (_ bv10 8) mem_7fffffffffffffff_104_8)))
 (not $x15106)))
(assert
 (let ((?x2374 ((_ extract 839 832) mem_c0000f45_79_992)))
 (let ((?x2364 ((_ extract 831 824) mem_c0000f45_79_992)))
 (let ((?x2349 ((_ extract 823 816) mem_c0000f45_79_992)))
 (let ((?x2357 ((_ extract 815 808) mem_c0000f45_79_992)))
 (let ((?x2362 ((_ extract 807 800) mem_c0000f45_79_992)))
 (let ((?x2363 ((_ extract 799 792) mem_c0000f45_79_992)))
 (let ((?x593 (concat (concat ((_ extract 783 776) mem_c0000f45_79_992) ((_ extract 791 784) mem_c0000f45_79_992)) ?x2363)))
 (let ((?x4215 (concat (concat (concat (concat ?x593 ?x2362) ?x2357) ?x2349) ?x2364)))
 (let ((?x3812 (concat ?x4215 ?x2374)))
 (let ((?x18391 (bvadd (_ bv1 64) ?x3812)))
 (= (_ bv9223372036854775808 64) ?x18391))))))))))))
(assert
 (let ((?x81645 ((_ extract 7 0) mem_8000000000000000_195_128)))
 (let (($x80216 (= (_ bv10 8) ?x81645)))
 (let ((?x80258 (ite $x80216 (_ bv1 1) (_ bv0 1))))
 (let ((?x81676 ((_ extract 15 8) mem_8000000000000000_195_128)))
 (let (($x81692 (= (_ bv10 8) ?x81676)))
 (let ((?x80307 (ite $x81692 (_ bv1 1) (_ bv0 1))))
 (let ((?x81707 ((_ extract 23 16) mem_8000000000000000_195_128)))
 (let (($x81702 (= (_ bv10 8) ?x81707)))
 (let ((?x80306 (ite $x81702 (_ bv1 1) (_ bv0 1))))
 (let ((?x81720 ((_ extract 31 24) mem_8000000000000000_195_128)))
 (let (($x81716 (= (_ bv10 8) ?x81720)))
 (let ((?x80399 (ite $x81716 (_ bv1 1) (_ bv0 1))))
 (let ((?x81734 ((_ extract 39 32) mem_8000000000000000_195_128)))
 (let (($x81729 (= (_ bv10 8) ?x81734)))
 (let ((?x80375 (ite $x81729 (_ bv1 1) (_ bv0 1))))
 (let ((?x80329 ((_ extract 47 40) mem_8000000000000000_195_128)))
 (let (($x81743 (= (_ bv10 8) ?x80329)))
 (let ((?x81703 (ite $x81743 (_ bv1 1) (_ bv0 1))))
 (let ((?x80240 ((_ extract 55 48) mem_8000000000000000_195_128)))
 (let (($x80352 (= (_ bv10 8) ?x80240)))
 (let ((?x81718 (ite $x80352 (_ bv1 1) (_ bv0 1))))
 (let ((?x80249 ((_ extract 63 56) mem_8000000000000000_195_128)))
 (let (($x80374 (= (_ bv10 8) ?x80249)))
 (let ((?x80370 (ite $x80374 (_ bv1 1) (_ bv0 1))))
 (let ((?x81079 ((_ extract 71 64) mem_8000000000000000_195_128)))
 (let (($x80355 (= (_ bv10 8) ?x81079)))
 (let ((?x80380 (ite $x80355 (_ bv1 1) (_ bv0 1))))
 (let ((?x80294 ((_ extract 79 72) mem_8000000000000000_195_128)))
 (let (($x80385 (= (_ bv10 8) ?x80294)))
 (let ((?x80345 (ite $x80385 (_ bv1 1) (_ bv0 1))))
 (let ((?x74206 ((_ extract 87 80) mem_8000000000000000_195_128)))
 (let (($x78076 (= (_ bv10 8) ?x74206)))
 (let ((?x80321 (ite $x78076 (_ bv1 1) (_ bv0 1))))
 (let ((?x84678 ((_ extract 95 88) mem_8000000000000000_195_128)))
 (let (($x73867 (= (_ bv10 8) ?x84678)))
 (let ((?x80381 (ite $x73867 (_ bv1 1) (_ bv0 1))))
 (let ((?x78032 ((_ extract 103 96) mem_8000000000000000_195_128)))
 (let (($x78096 (= (_ bv10 8) ?x78032)))
 (let ((?x81712 (ite $x78096 (_ bv1 1) (_ bv0 1))))
 (let ((?x78065 ((_ extract 111 104) mem_8000000000000000_195_128)))
 (let (($x78176 (= (_ bv10 8) ?x78065)))
 (let ((?x80265 (ite $x78176 (_ bv1 1) (_ bv0 1))))
 (let ((?x80326 ((_ extract 119 112) mem_8000000000000000_195_128)))
 (let (($x79637 (= (_ bv10 8) ?x80326)))
 (let ((?x80400 (ite $x79637 (_ bv1 1) (_ bv0 1))))
 (let ((?x80354 ((_ extract 127 120) mem_8000000000000000_195_128)))
 (let (($x78207 (= (_ bv10 8) ?x80354)))
 (let ((?x80291 (ite $x78207 (_ bv1 1) (_ bv0 1))))
 (let ((?x80382 (concat (concat (concat (concat (concat ?x80291 ?x80400) ?x80265) ?x81712) ?x80381) ?x80321)))
 (let ((?x80353 (concat (concat (concat (concat (concat ?x80382 ?x80345) ?x80380) ?x80370) ?x81718) ?x81703)))
 (let ((?x80348 (concat (concat (concat (concat (concat ?x80353 ?x80375) ?x80399) ?x80306) ?x80307) ?x80258)))
 (and (distinct (_ bv0 16) ?x80348) true)))))))))))))))))))))))))))))))))))))))))))))))))))))
(assert
 (let ((?x81645 ((_ extract 7 0) mem_8000000000000000_195_128)))
 (let (($x80216 (= (_ bv10 8) ?x81645)))
 (let ((?x80258 (ite $x80216 (_ bv1 1) (_ bv0 1))))
 (let ((?x81676 ((_ extract 15 8) mem_8000000000000000_195_128)))
 (let (($x81692 (= (_ bv10 8) ?x81676)))
 (let ((?x80307 (ite $x81692 (_ bv1 1) (_ bv0 1))))
 (let ((?x81707 ((_ extract 23 16) mem_8000000000000000_195_128)))
 (let (($x81702 (= (_ bv10 8) ?x81707)))
 (let ((?x80306 (ite $x81702 (_ bv1 1) (_ bv0 1))))
 (let ((?x81720 ((_ extract 31 24) mem_8000000000000000_195_128)))
 (let (($x81716 (= (_ bv10 8) ?x81720)))
 (let ((?x80399 (ite $x81716 (_ bv1 1) (_ bv0 1))))
 (let ((?x81734 ((_ extract 39 32) mem_8000000000000000_195_128)))
 (let (($x81729 (= (_ bv10 8) ?x81734)))
 (let ((?x80375 (ite $x81729 (_ bv1 1) (_ bv0 1))))
 (let ((?x80329 ((_ extract 47 40) mem_8000000000000000_195_128)))
 (let (($x81743 (= (_ bv10 8) ?x80329)))
 (let ((?x81703 (ite $x81743 (_ bv1 1) (_ bv0 1))))
 (let ((?x80240 ((_ extract 55 48) mem_8000000000000000_195_128)))
 (let (($x80352 (= (_ bv10 8) ?x80240)))
 (let ((?x81718 (ite $x80352 (_ bv1 1) (_ bv0 1))))
 (let ((?x80249 ((_ extract 63 56) mem_8000000000000000_195_128)))
 (let (($x80374 (= (_ bv10 8) ?x80249)))
 (let ((?x80370 (ite $x80374 (_ bv1 1) (_ bv0 1))))
 (let ((?x81079 ((_ extract 71 64) mem_8000000000000000_195_128)))
 (let (($x80355 (= (_ bv10 8) ?x81079)))
 (let ((?x80380 (ite $x80355 (_ bv1 1) (_ bv0 1))))
 (let ((?x80294 ((_ extract 79 72) mem_8000000000000000_195_128)))
 (let (($x80385 (= (_ bv10 8) ?x80294)))
 (let ((?x80345 (ite $x80385 (_ bv1 1) (_ bv0 1))))
 (let ((?x74206 ((_ extract 87 80) mem_8000000000000000_195_128)))
 (let (($x78076 (= (_ bv10 8) ?x74206)))
 (let ((?x80321 (ite $x78076 (_ bv1 1) (_ bv0 1))))
 (let ((?x84678 ((_ extract 95 88) mem_8000000000000000_195_128)))
 (let (($x73867 (= (_ bv10 8) ?x84678)))
 (let ((?x80381 (ite $x73867 (_ bv1 1) (_ bv0 1))))
 (let ((?x78032 ((_ extract 103 96) mem_8000000000000000_195_128)))
 (let (($x78096 (= (_ bv10 8) ?x78032)))
 (let ((?x81712 (ite $x78096 (_ bv1 1) (_ bv0 1))))
 (let ((?x78065 ((_ extract 111 104) mem_8000000000000000_195_128)))
 (let (($x78176 (= (_ bv10 8) ?x78065)))
 (let ((?x80265 (ite $x78176 (_ bv1 1) (_ bv0 1))))
 (let ((?x80326 ((_ extract 119 112) mem_8000000000000000_195_128)))
 (let (($x79637 (= (_ bv10 8) ?x80326)))
 (let ((?x80400 (ite $x79637 (_ bv1 1) (_ bv0 1))))
 (let ((?x80354 ((_ extract 127 120) mem_8000000000000000_195_128)))
 (let (($x78207 (= (_ bv10 8) ?x80354)))
 (let ((?x80291 (ite $x78207 (_ bv1 1) (_ bv0 1))))
 (let ((?x118594 (concat (concat (concat (concat (concat (_ bv0 16) ?x80291) ?x80400) ?x80265) ?x81712) ?x80381)))
 (let ((?x118590 (concat (concat (concat (concat (concat ?x118594 ?x80321) ?x80345) ?x80380) ?x80370) ?x81718)))
 (let ((?x118585 (concat (concat (concat (concat (concat ?x118590 ?x81703) ?x80375) ?x80399) ?x80306) ?x80307)))
 (let ((?x118584 (concat ?x118585 ?x80258)))
 (let ((?x118558 ((_ zero_extend 32) ?x118584)))
 (let ((?x118582 (ite $x78207 (_ bv15 64) (_ bv64 64))))
 (let ((?x118581 (ite $x79637 (_ bv14 64) ?x118582)))
 (let ((?x118580 (ite $x78176 (_ bv13 64) ?x118581)))
 (let ((?x118579 (ite $x78096 (_ bv12 64) ?x118580)))
 (let ((?x118574 (ite $x73867 (_ bv11 64) ?x118579)))
 (let ((?x118573 (ite $x78076 (_ bv10 64) ?x118574)))
 (let ((?x118557 (ite $x80385 (_ bv9 64) ?x118573)))
 (let ((?x118554 (ite $x80355 (_ bv8 64) ?x118557)))
 (let ((?x118552 (ite $x80374 (_ bv7 64) ?x118554)))
 (let ((?x118553 (ite $x80352 (_ bv6 64) ?x118552)))
 (let ((?x118556 (ite $x81743 (_ bv5 64) ?x118553)))
 (let ((?x118555 (ite $x81729 (_ bv4 64) ?x118556)))
 (let ((?x118572 (ite $x81716 (_ bv3 64) ?x118555)))
 (let ((?x118571 (ite $x81702 (_ bv2 64) ?x118572)))
 (let ((?x118570 (ite $x81692 (_ bv1 64) ?x118571)))
 (let ((?x118560 (ite $x80216 (_ bv0 64) ?x118570)))
 (let (($x118583 (and (distinct (_ bv0 32) ?x118584) true)))
 (let ((?x118562 (ite $x118583 ?x118560 ?x118558)))
 (let ((?x118561 ((_ extract 31 0) ?x118562)))
 (let ((?x118569 ((_ zero_extend 32) ?x118561)))
 (let ((?x2374 ((_ extract 839 832) mem_c0000f45_79_992)))
 (let ((?x2364 ((_ extract 831 824) mem_c0000f45_79_992)))
 (let ((?x2349 ((_ extract 823 816) mem_c0000f45_79_992)))
 (let ((?x2357 ((_ extract 815 808) mem_c0000f45_79_992)))
 (let ((?x2362 ((_ extract 807 800) mem_c0000f45_79_992)))
 (let ((?x2363 ((_ extract 799 792) mem_c0000f45_79_992)))
 (let ((?x593 (concat (concat ((_ extract 783 776) mem_c0000f45_79_992) ((_ extract 791 784) mem_c0000f45_79_992)) ?x2363)))
 (let ((?x4215 (concat (concat (concat (concat ?x593 ?x2362) ?x2357) ?x2349) ?x2364)))
 (let ((?x3812 (concat ?x4215 ?x2374)))
 (let ((?x3646 (bvmul (_ bv18446744073709551615 64) ?x3812)))
 (let ((?x2427 ((_ extract 775 768) mem_c0000f45_79_992)))
 (let ((?x2419 ((_ extract 767 760) mem_c0000f45_79_992)))
 (let ((?x2429 ((_ extract 759 752) mem_c0000f45_79_992)))
 (let ((?x2417 ((_ extract 751 744) mem_c0000f45_79_992)))
 (let ((?x2410 ((_ extract 743 736) mem_c0000f45_79_992)))
 (let ((?x2411 ((_ extract 735 728) mem_c0000f45_79_992)))
 (let ((?x4124 (concat (concat ((_ extract 719 712) mem_c0000f45_79_992) ((_ extract 727 720) mem_c0000f45_79_992)) ?x2411)))
 (let ((?x3823 (concat (concat (concat (concat (concat ?x4124 ?x2410) ?x2417) ?x2429) ?x2419) ?x2427)))
 (let ((?x28836 (bvadd (_ bv18446744073709551615 64) ?x3823)))
 (let ((?x30195 (bvadd ?x28836 ?x3646)))
 (let ((?x3615 ((_ extract 824 824) mem_c0000f45_79_992)))
 (let ((?x3589 (concat ?x3615 ?x2374)))
 (let ((?x4638 (bvmul (_ bv511 9) ?x3589)))
 (let ((?x4203 ((_ extract 760 760) mem_c0000f45_79_992)))
 (let ((?x3607 (concat ?x4203 ?x2427)))
 (let ((?x49860 (bvadd (_ bv511 9) ?x3607)))
 (let ((?x50588 (bvadd ?x49860 ?x4638)))
 (let (($x51938 (bvule ?x50588 (_ bv398 9))))
 (let ((?x51594 ((_ extract 63 9) ?x30195)))
 (let (($x51616 (= (_ bv0 55) ?x51594)))
 (let (($x50372 (and $x51616 $x51938)))
 (let ((?x50547 (ite $x50372 ?x30195 (_ bv398 64))))
 (bvugt ?x50547 ?x118569)))))))))))))))))))))))))))))))))))))))))))))))))))))))))))))))))))))))))))))))))))))))))))))))))))))))))))
(assert
 (let ((?x2374 ((_ extract 839 832) mem_c0000f45_79_992)))
 (let ((?x2364 ((_ extract 831 824) mem_c0000f45_79_992)))
 (let ((?x2349 ((_ extract 823 816) mem_c0000f45_79_992)))
 (let ((?x2357 ((_ extract 815 808) mem_c0000f45_79_992)))
 (let ((?x2362 ((_ extract 807 800) mem_c0000f45_79_992)))
 (let ((?x2363 ((_ extract 799 792) mem_c0000f45_79_992)))
 (let ((?x593 (concat (concat ((_ extract 783 776) mem_c0000f45_79_992) ((_ extract 791 784) mem_c0000f45_79_992)) ?x2363)))
 (let ((?x4215 (concat (concat (concat (concat ?x593 ?x2362) ?x2357) ?x2349) ?x2364)))
 (let ((?x3812 (concat ?x4215 ?x2374)))
 (let ((?x80354 ((_ extract 127 120) mem_8000000000000000_195_128)))
 (let (($x78207 (= (_ bv10 8) ?x80354)))
 (let ((?x196747 (ite $x78207 (_ bv15 32) (_ bv64 32))))
 (let ((?x80326 ((_ extract 119 112) mem_8000000000000000_195_128)))
 (let (($x79637 (= (_ bv10 8) ?x80326)))
 (let ((?x195501 (ite $x79637 (_ bv14 32) ?x196747)))
 (let ((?x78065 ((_ extract 111 104) mem_8000000000000000_195_128)))
 (let (($x78176 (= (_ bv10 8) ?x78065)))
 (let ((?x196558 (ite $x78176 (_ bv13 32) ?x195501)))
 (let ((?x78032 ((_ extract 103 96) mem_8000000000000000_195_128)))
 (let (($x78096 (= (_ bv10 8) ?x78032)))
 (let ((?x196664 (ite $x78096 (_ bv12 32) ?x196558)))
 (let ((?x84678 ((_ extract 95 88) mem_8000000000000000_195_128)))
 (let (($x73867 (= (_ bv10 8) ?x84678)))
 (let ((?x194572 (ite $x73867 (_ bv11 32) ?x196664)))
 (let ((?x74206 ((_ extract 87 80) mem_8000000000000000_195_128)))
 (let (($x78076 (= (_ bv10 8) ?x74206)))
 (let ((?x196984 (ite $x78076 (_ bv10 32) ?x194572)))
 (let ((?x80294 ((_ extract 79 72) mem_8000000000000000_195_128)))
 (let (($x80385 (= (_ bv10 8) ?x80294)))
 (let ((?x196017 (ite $x80385 (_ bv9 32) ?x196984)))
 (let ((?x81079 ((_ extract 71 64) mem_8000000000000000_195_128)))
 (let (($x80355 (= (_ bv10 8) ?x81079)))
 (let ((?x3835 (ite $x80355 (_ bv8 32) ?x196017)))
 (let ((?x80249 ((_ extract 63 56) mem_8000000000000000_195_128)))
 (let (($x80374 (= (_ bv10 8) ?x80249)))
 (let ((?x196244 (ite $x80374 (_ bv7 32) ?x3835)))
 (let ((?x80240 ((_ extract 55 48) mem_8000000000000000_195_128)))
 (let (($x80352 (= (_ bv10 8) ?x80240)))
 (let ((?x194345 (ite $x80352 (_ bv6 32) ?x196244)))
 (let ((?x80329 ((_ extract 47 40) mem_8000000000000000_195_128)))
 (let (($x81743 (= (_ bv10 8) ?x80329)))
 (let ((?x196979 (ite $x81743 (_ bv5 32) ?x194345)))
 (let ((?x81734 ((_ extract 39 32) mem_8000000000000000_195_128)))
 (let (($x81729 (= (_ bv10 8) ?x81734)))
 (let ((?x197534 (ite $x81729 (_ bv4 32) ?x196979)))
 (let ((?x81720 ((_ extract 31 24) mem_8000000000000000_195_128)))
 (let (($x81716 (= (_ bv10 8) ?x81720)))
 (let ((?x196631 (ite $x81716 (_ bv3 32) ?x197534)))
 (let ((?x81707 ((_ extract 23 16) mem_8000000000000000_195_128)))
 (let (($x81702 (= (_ bv10 8) ?x81707)))
 (let ((?x196371 (ite $x81702 (_ bv2 32) ?x196631)))
 (let ((?x81676 ((_ extract 15 8) mem_8000000000000000_195_128)))
 (let (($x81692 (= (_ bv10 8) ?x81676)))
 (let ((?x197048 (ite $x81692 (_ bv1 32) ?x196371)))
 (let ((?x81645 ((_ extract 7 0) mem_8000000000000000_195_128)))
 (let (($x80216 (= (_ bv10 8) ?x81645)))
 (let ((?x195520 (ite $x80216 (_ bv0 32) ?x197048)))
 (let ((?x80258 (ite $x80216 (_ bv1 1) (_ bv0 1))))
 (let ((?x80307 (ite $x81692 (_ bv1 1) (_ bv0 1))))
 (let ((?x80306 (ite $x81702 (_ bv1 1) (_ bv0 1))))
 (let ((?x80399 (ite $x81716 (_ bv1 1) (_ bv0 1))))
 (let ((?x80375 (ite $x81729 (_ bv1 1) (_ bv0 1))))
 (let ((?x81703 (ite $x81743 (_ bv1 1) (_ bv0 1))))
 (let ((?x81718 (ite $x80352 (_ bv1 1) (_ bv0 1))))
 (let ((?x80370 (ite $x80374 (_ bv1 1) (_ bv0 1))))
 (let ((?x80380 (ite $x80355 (_ bv1 1) (_ bv0 1))))
 (let ((?x80345 (ite $x80385 (_ bv1 1) (_ bv0 1))))
 (let ((?x80321 (ite $x78076 (_ bv1 1) (_ bv0 1))))
 (let ((?x80381 (ite $x73867 (_ bv1 1) (_ bv0 1))))
 (let ((?x81712 (ite $x78096 (_ bv1 1) (_ bv0 1))))
 (let ((?x80265 (ite $x78176 (_ bv1 1) (_ bv0 1))))
 (let ((?x118596 (concat (concat (concat (_ bv0 16) (ite $x78207 (_ bv1 1) (_ bv0 1))) (ite $x79637 (_ bv1 1) (_ bv0 1))) ?x80265)))
 (let ((?x118601 (concat (concat (concat (concat (concat ?x118596 ?x81712) ?x80381) ?x80321) ?x80345) ?x80380)))
 (let ((?x118587 (concat (concat (concat (concat (concat ?x118601 ?x80370) ?x81718) ?x81703) ?x80375) ?x80399)))
 (let ((?x118584 (concat (concat (concat ?x118587 ?x80306) ?x80307) ?x80258)))
 (let (($x196420 (not $x78207)))
 (let (($x196760 (not $x79637)))
 (let (($x194882 (not $x78176)))
 (let (($x195263 (not $x78096)))
 (let (($x196013 (not $x73867)))
 (let (($x196349 (not $x78076)))
 (let (($x193807 (not $x80385)))
 (let (($x197356 (not $x80355)))
 (let (($x195132 (not $x80374)))
 (let (($x197426 (not $x80352)))
 (let (($x196535 (not $x81743)))
 (let (($x196280 (not $x81729)))
 (let (($x196971 (not $x81716)))
 (let (($x196358 (not $x81702)))
 (let (($x196076 (not $x81692)))
 (let (($x195952 (not $x80216)))
 (let (($x837 (and $x195952 $x196076 $x196358 $x196971 $x196280 $x196535 $x197426 $x195132 $x197356 $x193807 $x196349 $x196013 $x195263 $x194882 $x196760 $x196420)))
 (let ((?x197038 (ite $x837 ?x118584 ?x195520)))
 (let ((?x196384 (concat (_ bv0 32) ?x197038)))
 (let ((?x378759 (bvadd (bvadd (_ bv1 64) ?x196384) ?x3812)))
 (and (distinct (_ bv0 64) ?x378759) true)))))))))))))))))))))))))))))))))))))))))))))))))))))))))))))))))))))))))))))))))))))))))))))))))
(minimize mem_c0001010_98_32)
(minimize mem_c0000f45_79_992)
(maximize mem_c0000f45_79_992)
(maximize mem_8000000000000000_195_128)
(minimize syscall_stub_newfstatat_83_64)
(maximize mem_7fffffffffffffff_104_8)
(maximize syscall_stub_newfstatat_83_64)
(minimize mem_8000000000000000_195_128)
(maximize mem_c0001010_98_32)
(minimize mem_7fffffffffffffff_104_8)
(check-sat)
(get-objectives)
